! Filename:       BFG25AWD.S2P              Version:   4.0
! Philips part #: BFG25A/X                                   Date: Jun 1994
! Bias condition: Vce=1V, Ic=1.0mA
! IN LINE PINNING: same data as with cross emitter pinning.
!
#  MHz  S  MA  R  50
! Freq       S11            S21            S12            S22     !GUM [dB]
   40    .938   -2.3   3.065  176.9    .008   85.5    .995   -1.7 !    38.9
  100    .934   -5.5   3.053  172.4    .018   86.5    .993   -4.2 !    37.2
  200    .922  -10.8   2.992  165.6    .037   82.5    .984   -8.3 !    32.7
  300    .900  -16.1   2.941  158.8    .054   79.6    .970  -12.4 !    28.9
  400    .878  -21.1   2.876  152.4    .070   76.2    .955  -16.1 !    26.1
  500    .847  -25.9   2.779  146.3    .086   73.6    .937  -19.8 !    23.5
  600    .815  -30.1   2.669  140.3    .099   71.6    .919  -23.0 !    21.4
  700    .788  -33.9   2.556  135.1    .112   69.6    .901  -26.0 !    19.6
  800    .754  -37.5   2.448  129.8    .125   67.9    .881  -28.6 !    17.9
  900    .721  -40.6   2.351  125.1    .135   66.3    .861  -31.2 !    16.5
 1000    .682  -43.6   2.258  120.1    .146   64.4    .840  -33.5 !    15.1
 1200    .622  -49.1   2.086  111.5    .164   61.3    .801  -37.7 !    13.0
 1400    .573  -54.2   1.929  104.2    .180   59.9    .772  -42.0 !    11.4
 1600    .538  -58.4   1.802   98.5    .199   58.2    .754  -45.8 !    10.2
 1800    .505  -61.0   1.700   92.9    .213   56.9    .733  -48.6 !     9.2
 2000    .463  -63.4   1.578   86.9    .225   55.7    .710  -51.1 !     8.1
 2200    .427  -66.1   1.471   82.2    .237   54.7    .679  -54.4 !     6.9
 2400    .394  -70.3   1.421   77.8    .251   52.8    .656  -58.9 !     6.2
 2600    .373  -74.1   1.371   72.7    .266   51.3    .649  -63.1 !     5.8
 2800    .361  -76.6   1.298   68.3    .276   50.6    .654  -66.1 !     5.3
 3000    .340  -77.4   1.255   66.9    .290   50.8    .646  -68.4 !     4.9
