! Filename:       BFG25AWJ.S2P              Version:   4.0
! Philips part #: BFG25A/X                                   Date: Jun 1994
! Bias condition: Vce=3.0V, Ic=2.0mA
! IN LINE PINNING: same data as with cross emitter pinning.
!
#  MHz  S  MA  R  50
! Freq       S11            S21            S12            S22     !GUM [dB]
   40    .895   -2.7   5.175  175.9    .007   88.5    .995   -2.1 !    41.1
  100    .888   -7.1   5.126  170.6    .017   85.4    .990   -5.1 !    37.8
  200    .866  -13.9   4.967  162.2    .034   81.3    .972  -10.1 !    32.5
  300    .833  -20.3   4.795  153.9    .049   77.6    .947  -14.8 !    28.6
  400    .793  -26.4   4.586  146.5    .062   74.6    .920  -19.0 !    25.6
  500    .751  -31.4   4.328  139.6    .076   72.1    .890  -22.7 !    23.2
  600    .710  -35.9   4.060  133.3    .088   70.4    .864  -26.0 !    21.2
  700    .673  -39.7   3.801  127.9    .098   68.5    .838  -28.8 !    19.5
  800    .631  -43.0   3.565  122.7    .108   67.8    .813  -31.1 !    17.9
  900    .595  -45.8   3.355  118.2    .117   66.4    .789  -33.1 !    16.6
 1000    .555  -48.4   3.165  113.6    .126   65.2    .766  -35.1 !    15.4
 1200    .497  -53.0   2.833  105.7    .142   63.2    .726  -38.5 !    13.5
 1400    .451  -57.2   2.553   99.3    .157   62.9    .700  -42.0 !    12.0
 1600    .420  -60.6   2.340   94.4    .175   61.9    .685  -45.4 !    11.0
 1800    .394  -62.0   2.170   89.6    .190   60.9    .669  -47.7 !    10.0
 2000    .360  -63.7   1.990   84.4    .200   60.0    .649  -49.8 !     9.0
 2200    .327  -65.6   1.836   80.4    .215   59.1    .622  -52.8 !     7.9
 2400    .300  -69.2   1.749   76.6    .228   58.0    .602  -56.9 !     7.2
 2600    .286  -72.8   1.671   72.1    .245   56.3    .596  -61.1 !     6.7
 2800    .276  -75.1   1.570   68.4    .258   55.8    .602  -64.1 !     6.2
 3000    .264  -75.7   1.507   67.2    .269   55.6    .595  -66.4 !     5.8
