! Filename:       BFG25AWA.S2P              Version:   4.0
! Philips part #: BFG25A/X                                   Date: Jun 1994
! Bias condition: Vce=1V, Ic=0.1mA
! IN LINE PINNING: same data as with cross emitter pinning.
!
#  MHz  S  MA  R  50
! Freq       S11            S21            S12            S22     !GUM [dB]
   40    .994    -.8    .379  177.6    .008   88.1    .999   -1.0 !    37.7
  100    .996   -2.5    .378  173.9    .019   88.4    .999   -2.7 !    39.1
  200    .992   -5.0    .376  168.1    .038   85.4    .997   -5.3 !    31.2
  300    .987   -7.4    .381  162.6    .056   83.7    .995   -8.0 !    27.9
  400    .985   -9.9    .387  157.0    .075   81.5    .993  -10.6 !    25.4
  500    .981  -12.1    .390  151.7    .094   79.8    .992  -13.2 !    24.0
  600    .975  -14.6    .393  146.5    .111   78.2    .990  -15.8 !    22.1
  700    .970  -16.9    .396  141.3    .127   76.6    .989  -18.2 !    20.7
  800    .966  -19.3    .405  136.1    .143   75.0    .986  -20.6 !    19.4
  900    .959  -21.4    .414  131.8    .159   73.2    .980  -23.0 !    17.4
 1000    .947  -23.8    .423  126.7    .176   71.3    .975  -25.3 !    15.5
 1200    .931  -28.3    .442  117.5    .207   67.0    .961  -30.1 !    12.8
 1400    .915  -32.8    .461  109.4    .233   63.8    .951  -34.8 !    11.4
 1600    .904  -37.3    .480  103.6    .263   61.3    .946  -39.5 !    10.8
 1800    .889  -41.0    .503   97.3    .288   58.0    .931  -43.3 !     9.6
 2000    .860  -44.9    .512   90.1    .302   54.6    .908  -47.1 !     7.6
 2200    .832  -49.0    .518   84.4    .317   51.8    .879  -51.5 !     5.8
 2400    .804  -53.6    .542   79.6    .340   48.0    .857  -56.7 !     5.0
 2600    .791  -58.1    .564   73.2    .358   44.0    .853  -61.6 !     4.9
 2800    .777  -62.0    .566   68.2    .368   41.9    .856  -65.1 !     4.8
 3000    .753  -65.0    .576   66.9    .381   42.3    .839  -68.1 !     4.1
